Rodando pra 1h

Optimize a model with 490129 rows, 734060 columns and 26882239 nonzeros
Coefficient statistics:
  Matrix range    [1e+00, 1e+04]
  Objective range [3e-01, 7e-01]
  Bounds range    [1e+00, 1e+04]
  RHS range       [1e+00, 1e+04]
Presolve removed 0 rows and 0 columns (presolve time = 6s) ...
Presolve removed 0 rows and 0 columns (presolve time = 22s) ...
Presolve removed 8 rows and 8 columns (presolve time = 32s) ...
Presolve removed 8 rows and 8 columns (presolve time = 46s) ...
Presolve removed 8 rows and 8 columns (presolve time = 51s) ...
Presolve removed 8 rows and 8 columns (presolve time = 57s) ...
Presolve removed 8 rows and 8 columns (presolve time = 61s) ...
Presolve removed 8 rows and 8 columns (presolve time = 65s) ...
Presolve removed 8 rows and 8 columns (presolve time = 74s) ...
Presolve removed 8 rows and 8 columns (presolve time = 79s) ...
Presolve removed 8 rows and 8 columns (presolve time = 83s) ...
Presolve removed 8 rows and 8 columns (presolve time = 87s) ...
Presolve removed 8 rows and 8 columns (presolve time = 92s) ...
Presolve removed 8 rows and 8 columns (presolve time = 97s) ...
Presolve removed 8 rows and 8 columns (presolve time = 101s) ...
Presolve removed 8 rows and 8 columns (presolve time = 109s) ...
Presolve removed 8 rows and 8 columns (presolve time = 113s) ...
Presolve removed 8 rows and 8 columns (presolve time = 116s) ...
Presolve removed 8 rows and 8 columns (presolve time = 120s) ...
Presolve removed 8 rows and 8 columns (presolve time = 128s) ...
Presolve removed 8 rows and 8 columns (presolve time = 132s) ...
Presolve removed 8 rows and 8 columns (presolve time = 137s) ...
Presolve removed 8 rows and 8 columns (presolve time = 141s) ...
Presolve removed 8 rows and 8 columns (presolve time = 149s) ...
Presolve removed 8 rows and 8 columns (presolve time = 153s) ...
Presolve removed 8 rows and 8 columns (presolve time = 157s) ...
Presolve removed 8 rows and 8 columns (presolve time = 161s) ...
Presolve removed 8 rows and 8 columns (presolve time = 166s) ...
Presolve removed 8 rows and 8 columns (presolve time = 174s) ...
Presolve removed 8 rows and 8 columns (presolve time = 178s) ...
Presolve removed 8 rows and 8 columns (presolve time = 183s) ...
Presolve removed 8 rows and 8 columns (presolve time = 187s) ...
Presolve removed 8 rows and 8 columns (presolve time = 191s) ...
Presolve removed 8 rows and 8 columns (presolve time = 195s) ...
Presolve removed 8 rows and 8 columns (presolve time = 204s) ...
Presolve removed 8 rows and 8 columns (presolve time = 208s) ...
Presolve removed 8 rows and 8 columns (presolve time = 213s) ...
Presolve removed 8 rows and 8 columns (presolve time = 217s) ...
Presolve removed 8 rows and 8 columns (presolve time = 221s) ...
Presolve removed 8 rows and 8 columns (presolve time = 226s) ...
Presolve removed 8 rows and 8 columns (presolve time = 243s) ...
Presolve removed 8 rows and 8 columns (presolve time = 250s) ...
Presolve removed 8 rows and 8 columns (presolve time = 285s) ...
Presolve removed 8 rows and 8 columns
Presolve time: 284.62s
Presolved: 490121 rows, 734052 columns, 26882223 nonzeros
Variable types: 489300 continuous, 244752 integer (244750 binary)
Optimize a model with 490121 rows, 734052 columns and 26882223 nonzeros
Coefficient statistics:
  Matrix range    [1e+00, 1e+04]
  Objective range [3e-01, 7e-01]
  Bounds range    [1e+00, 1e+04]
  RHS range       [1e+00, 1e+04]
Presolve removed 0 rows and 0 columns (presolve time = 6s) ...
Presolve removed 0 rows and 0 columns (presolve time = 10s) ...
Presolve removed 0 rows and 0 columns (presolve time = 16s) ...
Presolved: 490121 rows, 734052 columns, 26882223 nonzeros


Root simplex log...

Iteration    Objective       Primal Inf.    Dual Inf.      Time
       0    0.0000000e+00   2.114683e+03   0.000000e+00    352s
    1996    2.1724860e-04   1.811080e+04   0.000000e+00    371s
    2400    3.5796491e-04   2.099673e+04   0.000000e+00    384s
    2839    4.7219447e-04   3.810303e+04   0.000000e+00    398s
    3283    6.6160600e-04   1.957276e+04   0.000000e+00    416s
    3647    8.8682380e-04   4.123195e+04   0.000000e+00    431s
    4241    1.0335032e-03   4.536440e+04   0.000000e+00    459s
    4814    1.2264943e-03   1.733421e+05   0.000000e+00    485s
    6692    1.2527680e-03   8.378174e+04   0.000000e+00    586s
    8759    1.4224034e-03   1.213469e+05   0.000000e+00    700s
    9426    1.8239519e-03   2.250630e+05   0.000000e+00    738s
   10863    2.4997508e-03   1.270725e+05   0.000000e+00    821s
   12082    2.1765218e+01   1.367443e+05   0.000000e+00    878s
   14234    2.1766340e+01   1.461870e+05   0.000000e+00    938s
   15607    2.1766487e+01   1.274297e+05   0.000000e+00    968s
   17315    2.1766658e+01   1.518667e+05   0.000000e+00   1008s
   19084    2.1766782e+01   1.186312e+05   0.000000e+00   1046s
   21007    2.1766999e+01   1.471449e+05   0.000000e+00   1090s
   23083    2.1767223e+01   1.623410e+05   0.000000e+00   1142s
   24478    2.1768436e+01   1.501274e+05   0.000000e+00   1177s
   25986    2.1769019e+01   1.472463e+05   0.000000e+00   1215s
   27577    2.1769502e+01   1.535395e+05   0.000000e+00   1254s
   29270    2.1770005e+01   1.355510e+05   0.000000e+00   1300s
   30941    2.1770485e+01   1.386716e+05   0.000000e+00   1349s
   32597    2.1775501e+01   1.490304e+05   0.000000e+00   1399s
   34318    2.1777767e+01   1.348958e+05   0.000000e+00   1453s
   36058    2.1779905e+01   1.343426e+05   0.000000e+00   1506s
   37851    2.1781965e+01   1.517777e+05   0.000000e+00   1563s
   39696    2.1784050e+01   1.461367e+05   0.000000e+00   1624s
   41626    2.1786234e+01   1.420193e+05   0.000000e+00   1689s
   43591    2.1788536e+01   1.247975e+05   0.000000e+00   1755s
   45637    2.1790950e+01   1.530397e+05   0.000000e+00   1826s
   47753    2.1793370e+01   1.254969e+05   0.000000e+00   1902s
   49923    2.1795783e+01   1.506700e+05   0.000000e+00   1975s
   52166    2.1798483e+01   1.273827e+05   0.000000e+00   2058s
   55461    2.2869699e+01   1.438470e+05   0.000000e+00   2180s
   58439    2.3648602e+01   1.316506e+05   0.000000e+00   2295s
   59532    2.3670097e+01   1.476292e+05   0.000000e+00   2334s
   62154    2.4058472e+01   1.339305e+05   0.000000e+00   2442s
   66188    2.4313692e+01   1.767698e+05   0.000000e+00   2622s
   68687    2.4549891e+01   1.730185e+05   0.000000e+00   2739s
   70374    2.4709275e+01   1.243802e+05   0.000000e+00   2817s
   71614    2.4728432e+01   1.243504e+05   0.000000e+00   2875s
   73559    2.5011409e+01   8.997871e+04   0.000000e+00   2968s
   76161    2.5357104e+01   8.920240e+04   0.000000e+00   3094s
   77872    2.5419251e+01   1.338954e+05   0.000000e+00   3176s
   80575    2.5710306e+01   1.067784e+05   0.000000e+00   3300s
   83361    2.5992688e+01   1.752413e+05   0.000000e+00   3433s
   85510    2.6090630e+01   1.530934e+05   0.000000e+00   3544s

Root relaxation: time limit, 86630 iterations, 3266.01 seconds

    Nodes    |    Current Node    |     Objective Bounds      |     Work
 Expl Unexpl |  Obj  Depth IntInf | Incumbent    BestBd   Gap | It/Node Time

     0     0          -    0               -          -      -     - 3600s

Explored 0 nodes (86630 simplex iterations) in 3600.07 seconds
Thread count was 1 (of 4 available processors)

Time limit reached
Best objective -, best bound -, gap -
Tempo: 3594.23 segundos

Error code = 10004
Var::get
